problem_generation/data/GISP/train/er_n=61_m=1099_p=0.60_SET2_setparam=100.00_alpha=0.50_604.lp
maximize
OBJ:100x0 + 100x1 + 100x2 + 100x3 + 100x4 + 100x5 + 100x6 + 100x7 + 100x8 + 100x9 + 100x10 + 100x11 + 100x12 + 100x13 + 100x14 + 100x15 + 100x16 + 100x17 + 100x18 + 100x19 + 100x20 + 100x21 + 100x22 + 100x23 + 100x24 + 100x25 + 100x26 + 100x27 + 100x28 + 100x29 + 100x30 + 100x31 + 100x32 + 100x33 + 100x34 + 100x35 + 100x36 + 100x37 + 100x38 + 100x39 + 100x40 + 100x41 + 100x42 + 100x43 + 100x44 + 100x45 + 100x46 + 100x47 + 100x48 + 100x49 + 100x50 + 100x51 + 100x52 + 100x53 + 100x54 + 100x55 + 100x56 + 100x57 + 100x58 + 100x59 + 100x60 - y26_30 - y8_18 - y48_54 - y21_46 - y11_23 - y29_59 - y10_27 - y41_42 - y10_36 - y2_32 - y25_34 - y10_45 - y2_41 - y25_43 - y22_28 - y22_37 - y14_42 - y14_51 - y15_16 - y47_48 - y7_21 - y9_49 - y40_45 - y21_41 - y21_50 - y21_59 - y10_22 - y2_27 - y33_42 - y51_59 - y14_19 - y3_28 - y24_60 - y3_37 - y16_56 - y28_48 - y9_44 - y17_57 - y29_40 - y21_45 - y40_58 - y10_26 - y54_60 - y3_5 - y51_54 - y2_49 - y3_14 - y32_50 - y22_27 - y35_46 - y1_53 - y24_55 - y14_32 - y16_51 - y35_55 - y55_60 - y5_41 - y9_48 - y50_58 - y6_33 - y6_42 - y10_12 - y39_57 - y20_53 - y54_55 - y2_26 - y2_35 - y32_36 - y24_32 - y3_9 - y24_41 - y1_48 - y35_50 - y24_59 - y35_59 - y17_20 - y5_27 - y28_29 - y17_38 - y47_51 - y9_43 - y5_54 - y6_46 - y20_39 - y39_52 - y2_12 - y20_48 - y10_25 - y2_21 - y20_57 - y3_4 - y32_40 - y1_34 - y13_36 - y24_36 - y16_32 - y5_22 - y17_24 - y9_20 - y17_33 - y5_40 - y9_38 - y9_47 - y6_23 - y42_44 - y11_56 - y31_34 - y20_43 - y20_52 - y31_52 - y4_44 - y12_57 - y23_57 - y1_29 - y24_31 - y43_44 - y13_40 - y35_40 - y16_36 - y1_47 - y16_45 - y5_8 - y5_26 - y28_37 - y50_52 - y0_60 - y23_25 - y39_42 - y4_39 - y4_48 - y1_24 - y4_57 - y13_35 - y16_31 - y1_42 - y13_44 - y1_51 - y16_49 - y38_46 - y17_23 - y9_19 - y5_30 - y6_13 - y50_56 - y20_24 - y0_55 - y31_33 - y39_46 - y23_29 - y20_42 - y4_34 - y4_52 - y1_28 - y13_30 - y37_58 - y16_35 - y38_41 - y46_54 - y15_48 - y26_48 - y49_50 - y18_53 - y27_31 - y27_40 - y19_36 - y27_49 - y11_32 - y8_54 - y12_15 - y4_11 - y4_29 - y12_42 - y23_42 - y34_39 - y4_47 - y34_48 - y1_23 - y34_57 - y1_32 - y3_51 - y37_53 - y16_30 - y3_60 - y46_49 - y46_58 - y7_39 - y57_58 - y8_13 - y7_57 - y11_27 - y30_49 - y11_45 - y0_54 - y52_55 - y33_51 - y44_60 - y45_52 - y3_46 - y7_25 - y18_25 - y38_40 - y18_34 - y26_47 - y7_43 - y15_56 - y0_4 - y27_30 - y0_13 - y27_39 - y0_22 - y8_35 - y0_31 - y19_44 - y0_40 - y11_49 - y12_23 - y33_55 - y25_51 - y2_58 - y25_60 - y34_56 - y15_33 - y7_29 - y18_29 - y7_38 - y18_38 - y8_12 - y19_21 - y29_53 - y19_30 - y11_26 - y21_58 - y11_35 - y41_54 - y25_37 - y4_14 - y10_48 - y33_59 - y25_55 - y3_36 - y22_58 - y18_24 - y36_60 - y18_42 - y0_12 - y11_12 - y0_21 - y6_55 - y29_57 - y11_30 - y33_36 - y41_49 - y10_43 - y41_58 - y10_52 - y25_59 - y14_22 - y3_31 - y55_59 - y7_19 - y7_28 - y18_28 - y28_60 - y9_56 - y29_34 - y40_43 - y6_50 - y21_57 - y10_38 - y10_56 - y2_52 - y3_17 - y32_53 - y24_58 - y15_18 - y17_46 - y6_27 - y9_60 - y21_25 - y48_51 - y21_34 - y10_15 - y10_24 - y2_20 - y2_29 - y33_44 - y25_40 - y10_51 - y2_47 - y22_25 - y3_21 - y43_57 - y35_53 - y1_60 - y28_32 - y36_45 - y47_54 - y5_48 - y17_50 - y28_50 - y9_46 - y17_59 - y28_59 - y58_60 - y40_42 - y21_38 - y6_58 - y25_35 - y3_7 - y13_39 - y3_16 - y35_48 - y3_25 - y16_44 - y1_55 - y28_45 - y36_58 - y9_41 - y17_54 - y28_54 - y9_50 - y6_35 - y20_55 - y31_55 - y13_34 - y3_11 - y32_47 - y43_56 - y13_52 - y24_52 - y1_59 - y16_57 - y28_31 - y5_38 - y9_36 - y9_45 - y50_55 - y42_51 - y2_5 - y2_14 - y13_29 - y24_29 - y16_25 - y13_38 - y13_47 - y24_47 - y35_47 - y16_43 - y1_54 - y13_56 - y24_56 - y5_15 - y5_24 - y17_26 - y5_33 - y28_35 - y9_31 - y6_7 - y11_58 - y20_36 - y31_45 - y54_56 - y12_50 - y13_15 - y4_46 - y32_37 - y16_20 - y1_31 - y1_40 - y24_42 - y24_51 - y16_47 - y46_48 - y5_19 - y9_17 - y17_30 - y15_60 - y5_37 - y6_11 - y8_39 - y27_52 - y30_48 - y42_50 - y0_44 - y11_44 - y19_57 - y12_18 - y20_40 - y39_53 - y20_49 - y12_45 - y23_45 - y1_17 - y4_50 - y13_28 - y24_28 - y1_35 - y13_37 - y16_42 - y38_39 - y38_48 - y38_57 - y49_57 - y7_51 - y18_51 - y7_60 - y8_25 - y18_60 - y27_38 - y19_34 - y19_43 - y0_39 - y30_52 - y42_54 - y0_48 - y11_57 - y12_22 - y31_35 - y12_40 - y1_3 - y23_40 - y23_49 - y1_12 - y4_45 - y34_46 - y13_23 - y34_55 - y16_28 - y3_58 - y15_41 - y26_41 - y5_18 - y38_43 - y46_56 - y38_52 - y49_52 - y18_55 - y11_34 - y19_47 - y30_47 - y42_49 - y19_56 - y20_21 - y30_56 - y4_13 - y23_26 - y31_39 - y33_58 - y23_35 - y1_7 - y4_40 - y1_16 - y13_18 - y22_48 - y45_50 - y22_57 - y56_59 - y3_53 - y37_55 - y15_27 - y15_36 - y0_11 - y8_24 - y11_29 - y0_38 - y4_8 - y12_21 - y4_17 - y33_53 - y25_49 - y10_60 - y1_2 - y25_58 - y53_58 - y14_39 - y14_48 - y15_40 - y18_36 - y26_49 - y8_10 - y26_58 - y18_54 - y27_32 - y19_28 - y11_24 - y29_60 - y11_33 - y41_43 - y41_52 - y4_12 - y10_55 - y2_51 - y2_60 - y22_47 - y34_49 - y45_49 - y37_45 - y3_52 - y14_52 - y15_26 - y7_31 - y18_40 - y0_1 - y10_41 - y41_56 - y25_57 - y14_29 - y22_42 - y34_44 - y14_38
 Subject to
C1: x0+x1-y0_1 <=1 
C2: x0+x4-y0_4 <=1 
C3: x0+x6 <=1 
C4: x0+x9 <=1 
C5: x0+x10 <=1 
C6: x0+x11-y0_11 <=1 
C7: x0+x12-y0_12 <=1 
C8: x0+x13-y0_13 <=1 
C9: x0+x15 <=1 
C10: x0+x16 <=1 
C11: x0+x19 <=1 
C12: x0+x20 <=1 
C13: x0+x21-y0_21 <=1 
C14: x0+x22-y0_22 <=1 
C15: x0+x25 <=1 
C16: x0+x26 <=1 
C17: x0+x27 <=1 
C18: x0+x28 <=1 
C19: x0+x29 <=1 
C20: x0+x31-y0_31 <=1 
C21: x0+x32 <=1 
C22: x0+x33 <=1 
C23: x0+x34 <=1 
C24: x0+x35 <=1 
C25: x0+x38-y0_38 <=1 
C26: x0+x39-y0_39 <=1 
C27: x0+x40-y0_40 <=1 
C28: x0+x42 <=1 
C29: x0+x44-y0_44 <=1 
C30: x0+x45 <=1 
C31: x0+x46 <=1 
C32: x0+x48-y0_48 <=1 
C33: x0+x49 <=1 
C34: x0+x50 <=1 
C35: x0+x53 <=1 
C36: x0+x54-y0_54 <=1 
C37: x0+x55-y0_55 <=1 
C38: x0+x59 <=1 
C39: x0+x60-y0_60 <=1 
C40: x1+x2-y1_2 <=1 
C41: x1+x3-y1_3 <=1 
C42: x1+x4 <=1 
C43: x1+x5 <=1 
C44: x1+x7-y1_7 <=1 
C45: x1+x8 <=1 
C46: x1+x9 <=1 
C47: x1+x11 <=1 
C48: x1+x12-y1_12 <=1 
C49: x1+x13 <=1 
C50: x1+x14 <=1 
C51: x1+x16-y1_16 <=1 
C52: x1+x17-y1_17 <=1 
C53: x1+x18 <=1 
C54: x1+x19 <=1 
C55: x1+x20 <=1 
C56: x1+x23-y1_23 <=1 
C57: x1+x24-y1_24 <=1 
C58: x1+x26 <=1 
C59: x1+x27 <=1 
C60: x1+x28-y1_28 <=1 
C61: x1+x29-y1_29 <=1 
C62: x1+x31-y1_31 <=1 
C63: x1+x32-y1_32 <=1 
C64: x1+x33 <=1 
C65: x1+x34-y1_34 <=1 
C66: x1+x35-y1_35 <=1 
C67: x1+x36 <=1 
C68: x1+x37 <=1 
C69: x1+x38 <=1 
C70: x1+x40-y1_40 <=1 
C71: x1+x41 <=1 
C72: x1+x42-y1_42 <=1 
C73: x1+x43 <=1 
C74: x1+x44 <=1 
C75: x1+x45 <=1 
C76: x1+x46 <=1 
C77: x1+x47-y1_47 <=1 
C78: x1+x48-y1_48 <=1 
C79: x1+x49 <=1 
C80: x1+x50 <=1 
C81: x1+x51-y1_51 <=1 
C82: x1+x53-y1_53 <=1 
C83: x1+x54-y1_54 <=1 
C84: x1+x55-y1_55 <=1 
C85: x1+x57 <=1 
C86: x1+x58 <=1 
C87: x1+x59-y1_59 <=1 
C88: x1+x60-y1_60 <=1 
C89: x2+x3 <=1 
C90: x2+x5-y2_5 <=1 
C91: x2+x7 <=1 
C92: x2+x9 <=1 
C93: x2+x12-y2_12 <=1 
C94: x2+x14-y2_14 <=1 
C95: x2+x18 <=1 
C96: x2+x19 <=1 
C97: x2+x20-y2_20 <=1 
C98: x2+x21-y2_21 <=1 
C99: x2+x22 <=1 
C100: x2+x26-y2_26 <=1 
C101: x2+x27-y2_27 <=1 
C102: x2+x28 <=1 
C103: x2+x29-y2_29 <=1 
C104: x2+x30 <=1 
C105: x2+x32-y2_32 <=1 
C106: x2+x34 <=1 
C107: x2+x35-y2_35 <=1 
C108: x2+x37 <=1 
C109: x2+x39 <=1 
C110: x2+x41-y2_41 <=1 
C111: x2+x42 <=1 
C112: x2+x45 <=1 
C113: x2+x47-y2_47 <=1 
C114: x2+x49-y2_49 <=1 
C115: x2+x51-y2_51 <=1 
C116: x2+x52-y2_52 <=1 
C117: x2+x55 <=1 
C118: x2+x57 <=1 
C119: x2+x58-y2_58 <=1 
C120: x2+x59 <=1 
C121: x2+x60-y2_60 <=1 
C122: x3+x4-y3_4 <=1 
C123: x3+x5-y3_5 <=1 
C124: x3+x7-y3_7 <=1 
C125: x3+x9-y3_9 <=1 
C126: x3+x11-y3_11 <=1 
C127: x3+x12 <=1 
C128: x3+x14-y3_14 <=1 
C129: x3+x15 <=1 
C130: x3+x16-y3_16 <=1 
C131: x3+x17-y3_17 <=1 
C132: x3+x18 <=1 
C133: x3+x19 <=1 
C134: x3+x21-y3_21 <=1 
C135: x3+x25-y3_25 <=1 
C136: x3+x27 <=1 
C137: x3+x28-y3_28 <=1 
C138: x3+x31-y3_31 <=1 
C139: x3+x32 <=1 
C140: x3+x33 <=1 
C141: x3+x35 <=1 
C142: x3+x36-y3_36 <=1 
C143: x3+x37-y3_37 <=1 
C144: x3+x40 <=1 
C145: x3+x44 <=1 
C146: x3+x46-y3_46 <=1 
C147: x3+x50 <=1 
C148: x3+x51-y3_51 <=1 
C149: x3+x52-y3_52 <=1 
C150: x3+x53-y3_53 <=1 
C151: x3+x58-y3_58 <=1 
C152: x3+x60-y3_60 <=1 
C153: x4+x6 <=1 
C154: x4+x7 <=1 
C155: x4+x8-y4_8 <=1 
C156: x4+x9 <=1 
C157: x4+x11-y4_11 <=1 
C158: x4+x12-y4_12 <=1 
C159: x4+x13-y4_13 <=1 
C160: x4+x14-y4_14 <=1 
C161: x4+x15 <=1 
C162: x4+x16 <=1 
C163: x4+x17-y4_17 <=1 
C164: x4+x18 <=1 
C165: x4+x21 <=1 
C166: x4+x22 <=1 
C167: x4+x23 <=1 
C168: x4+x26 <=1 
C169: x4+x27 <=1 
C170: x4+x29-y4_29 <=1 
C171: x4+x30 <=1 
C172: x4+x32 <=1 
C173: x4+x34-y4_34 <=1 
C174: x4+x35 <=1 
C175: x4+x39-y4_39 <=1 
C176: x4+x40-y4_40 <=1 
C177: x4+x41 <=1 
C178: x4+x42 <=1 
C179: x4+x43 <=1 
C180: x4+x44-y4_44 <=1 
C181: x4+x45-y4_45 <=1 
C182: x4+x46-y4_46 <=1 
C183: x4+x47-y4_47 <=1 
C184: x4+x48-y4_48 <=1 
C185: x4+x50-y4_50 <=1 
C186: x4+x52-y4_52 <=1 
C187: x4+x56 <=1 
C188: x4+x57-y4_57 <=1 
C189: x5+x6 <=1 
C190: x5+x8-y5_8 <=1 
C191: x5+x10 <=1 
C192: x5+x11 <=1 
C193: x5+x12 <=1 
C194: x5+x13 <=1 
C195: x5+x14 <=1 
C196: x5+x15-y5_15 <=1 
C197: x5+x16 <=1 
C198: x5+x18-y5_18 <=1 
C199: x5+x19-y5_19 <=1 
C200: x5+x22-y5_22 <=1 
C201: x5+x24-y5_24 <=1 
C202: x5+x26-y5_26 <=1 
C203: x5+x27-y5_27 <=1 
C204: x5+x30-y5_30 <=1 
C205: x5+x31 <=1 
C206: x5+x32 <=1 
C207: x5+x33-y5_33 <=1 
C208: x5+x34 <=1 
C209: x5+x35 <=1 
C210: x5+x37-y5_37 <=1 
C211: x5+x38-y5_38 <=1 
C212: x5+x40-y5_40 <=1 
C213: x5+x41-y5_41 <=1 
C214: x5+x42 <=1 
C215: x5+x45 <=1 
C216: x5+x46 <=1 
C217: x5+x47 <=1 
C218: x5+x48-y5_48 <=1 
C219: x5+x49 <=1 
C220: x5+x52 <=1 
C221: x5+x54-y5_54 <=1 
C222: x5+x55 <=1 
C223: x5+x56 <=1 
C224: x5+x57 <=1 
C225: x5+x60 <=1 
C226: x6+x7-y6_7 <=1 
C227: x6+x9 <=1 
C228: x6+x11-y6_11 <=1 
C229: x6+x12 <=1 
C230: x6+x13-y6_13 <=1 
C231: x6+x14 <=1 
C232: x6+x18 <=1 
C233: x6+x19 <=1 
C234: x6+x20 <=1 
C235: x6+x22 <=1 
C236: x6+x23-y6_23 <=1 
C237: x6+x24 <=1 
C238: x6+x25 <=1 
C239: x6+x27-y6_27 <=1 
C240: x6+x32 <=1 
C241: x6+x33-y6_33 <=1 
C242: x6+x35-y6_35 <=1 
C243: x6+x36 <=1 
C244: x6+x37 <=1 
C245: x6+x39 <=1 
C246: x6+x40 <=1 
C247: x6+x42-y6_42 <=1 
C248: x6+x45 <=1 
C249: x6+x46-y6_46 <=1 
C250: x6+x47 <=1 
C251: x6+x50-y6_50 <=1 
C252: x6+x51 <=1 
C253: x6+x54 <=1 
C254: x6+x55-y6_55 <=1 
C255: x6+x56 <=1 
C256: x6+x58-y6_58 <=1 
C257: x7+x8 <=1 
C258: x7+x11 <=1 
C259: x7+x14 <=1 
C260: x7+x16 <=1 
C261: x7+x19-y7_19 <=1 
C262: x7+x21-y7_21 <=1 
C263: x7+x23 <=1 
C264: x7+x24 <=1 
C265: x7+x25-y7_25 <=1 
C266: x7+x28-y7_28 <=1 
C267: x7+x29-y7_29 <=1 
C268: x7+x30 <=1 
C269: x7+x31-y7_31 <=1 
C270: x7+x32 <=1 
C271: x7+x37 <=1 
C272: x7+x38-y7_38 <=1 
C273: x7+x39-y7_39 <=1 
C274: x7+x43-y7_43 <=1 
C275: x7+x46 <=1 
C276: x7+x47 <=1 
C277: x7+x49 <=1 
C278: x7+x51-y7_51 <=1 
C279: x7+x52 <=1 
C280: x7+x54 <=1 
C281: x7+x55 <=1 
C282: x7+x56 <=1 
C283: x7+x57-y7_57 <=1 
C284: x7+x60-y7_60 <=1 
C285: x8+x9 <=1 
C286: x8+x10-y8_10 <=1 
C287: x8+x11 <=1 
C288: x8+x12-y8_12 <=1 
C289: x8+x13-y8_13 <=1 
C290: x8+x14 <=1 
C291: x8+x15 <=1 
C292: x8+x18-y8_18 <=1 
C293: x8+x19 <=1 
C294: x8+x21 <=1 
C295: x8+x22 <=1 
C296: x8+x24-y8_24 <=1 
C297: x8+x25-y8_25 <=1 
C298: x8+x27 <=1 
C299: x8+x30 <=1 
C300: x8+x35-y8_35 <=1 
C301: x8+x38 <=1 
C302: x8+x39-y8_39 <=1 
C303: x8+x40 <=1 
C304: x8+x41 <=1 
C305: x8+x44 <=1 
C306: x8+x46 <=1 
C307: x8+x49 <=1 
C308: x8+x51 <=1 
C309: x8+x52 <=1 
C310: x8+x53 <=1 
C311: x8+x54-y8_54 <=1 
C312: x8+x55 <=1 
C313: x8+x56 <=1 
C314: x8+x57 <=1 
C315: x9+x12 <=1 
C316: x9+x16 <=1 
C317: x9+x17-y9_17 <=1 
C318: x9+x19-y9_19 <=1 
C319: x9+x20-y9_20 <=1 
C320: x9+x24 <=1 
C321: x9+x25 <=1 
C322: x9+x26 <=1 
C323: x9+x28 <=1 
C324: x9+x29 <=1 
C325: x9+x31-y9_31 <=1 
C326: x9+x33 <=1 
C327: x9+x36-y9_36 <=1 
C328: x9+x38-y9_38 <=1 
C329: x9+x39 <=1 
C330: x9+x41-y9_41 <=1 
C331: x9+x42 <=1 
C332: x9+x43-y9_43 <=1 
C333: x9+x44-y9_44 <=1 
C334: x9+x45-y9_45 <=1 
C335: x9+x46-y9_46 <=1 
C336: x9+x47-y9_47 <=1 
C337: x9+x48-y9_48 <=1 
C338: x9+x49-y9_49 <=1 
C339: x9+x50-y9_50 <=1 
C340: x9+x54 <=1 
C341: x9+x55 <=1 
C342: x9+x56-y9_56 <=1 
C343: x9+x57 <=1 
C344: x9+x59 <=1 
C345: x9+x60-y9_60 <=1 
C346: x10+x11 <=1 
C347: x10+x12-y10_12 <=1 
C348: x10+x13 <=1 
C349: x10+x15-y10_15 <=1 
C350: x10+x18 <=1 
C351: x10+x20 <=1 
C352: x10+x21 <=1 
C353: x10+x22-y10_22 <=1 
C354: x10+x23 <=1 
C355: x10+x24-y10_24 <=1 
C356: x10+x25-y10_25 <=1 
C357: x10+x26-y10_26 <=1 
C358: x10+x27-y10_27 <=1 
C359: x10+x28 <=1 
C360: x10+x31 <=1 
C361: x10+x36-y10_36 <=1 
C362: x10+x38-y10_38 <=1 
C363: x10+x40 <=1 
C364: x10+x41-y10_41 <=1 
C365: x10+x42 <=1 
C366: x10+x43-y10_43 <=1 
C367: x10+x45-y10_45 <=1 
C368: x10+x46 <=1 
C369: x10+x47 <=1 
C370: x10+x48-y10_48 <=1 
C371: x10+x51-y10_51 <=1 
C372: x10+x52-y10_52 <=1 
C373: x10+x54 <=1 
C374: x10+x55-y10_55 <=1 
C375: x10+x56-y10_56 <=1 
C376: x10+x60-y10_60 <=1 
C377: x11+x12-y11_12 <=1 
C378: x11+x16 <=1 
C379: x11+x17 <=1 
C380: x11+x19 <=1 
C381: x11+x23-y11_23 <=1 
C382: x11+x24-y11_24 <=1 
C383: x11+x25 <=1 
C384: x11+x26-y11_26 <=1 
C385: x11+x27-y11_27 <=1 
C386: x11+x29-y11_29 <=1 
C387: x11+x30-y11_30 <=1 
C388: x11+x32-y11_32 <=1 
C389: x11+x33-y11_33 <=1 
C390: x11+x34-y11_34 <=1 
C391: x11+x35-y11_35 <=1 
C392: x11+x36 <=1 
C393: x11+x38 <=1 
C394: x11+x39 <=1 
C395: x11+x40 <=1 
C396: x11+x42 <=1 
C397: x11+x43 <=1 
C398: x11+x44-y11_44 <=1 
C399: x11+x45-y11_45 <=1 
C400: x11+x46 <=1 
C401: x11+x47 <=1 
C402: x11+x49-y11_49 <=1 
C403: x11+x52 <=1 
C404: x11+x54 <=1 
C405: x11+x55 <=1 
C406: x11+x56-y11_56 <=1 
C407: x11+x57-y11_57 <=1 
C408: x11+x58-y11_58 <=1 
C409: x11+x59 <=1 
C410: x11+x60 <=1 
C411: x12+x14 <=1 
C412: x12+x15-y12_15 <=1 
C413: x12+x16 <=1 
C414: x12+x17 <=1 
C415: x12+x18-y12_18 <=1 
C416: x12+x21-y12_21 <=1 
C417: x12+x22-y12_22 <=1 
C418: x12+x23-y12_23 <=1 
C419: x12+x31 <=1 
C420: x12+x32 <=1 
C421: x12+x35 <=1 
C422: x12+x38 <=1 
C423: x12+x40-y12_40 <=1 
C424: x12+x42-y12_42 <=1 
C425: x12+x45-y12_45 <=1 
C426: x12+x46 <=1 
C427: x12+x48 <=1 
C428: x12+x50-y12_50 <=1 
C429: x12+x52 <=1 
C430: x12+x54 <=1 
C431: x12+x56 <=1 
C432: x12+x57-y12_57 <=1 
C433: x12+x58 <=1 
C434: x12+x59 <=1 
C435: x12+x60 <=1 
C436: x13+x15-y13_15 <=1 
C437: x13+x16 <=1 
C438: x13+x17 <=1 
C439: x13+x18-y13_18 <=1 
C440: x13+x21 <=1 
C441: x13+x23-y13_23 <=1 
C442: x13+x24 <=1 
C443: x13+x27 <=1 
C444: x13+x28-y13_28 <=1 
C445: x13+x29-y13_29 <=1 
C446: x13+x30-y13_30 <=1 
C447: x13+x33 <=1 
C448: x13+x34-y13_34 <=1 
C449: x13+x35-y13_35 <=1 
C450: x13+x36-y13_36 <=1 
C451: x13+x37-y13_37 <=1 
C452: x13+x38-y13_38 <=1 
C453: x13+x39-y13_39 <=1 
C454: x13+x40-y13_40 <=1 
C455: x13+x41 <=1 
C456: x13+x44-y13_44 <=1 
C457: x13+x45 <=1 
C458: x13+x46 <=1 
C459: x13+x47-y13_47 <=1 
C460: x13+x48 <=1 
C461: x13+x52-y13_52 <=1 
C462: x13+x54 <=1 
C463: x13+x55 <=1 
C464: x13+x56-y13_56 <=1 
C465: x13+x58 <=1 
C466: x14+x15 <=1 
C467: x14+x18 <=1 
C468: x14+x19-y14_19 <=1 
C469: x14+x22-y14_22 <=1 
C470: x14+x23 <=1 
C471: x14+x24 <=1 
C472: x14+x29-y14_29 <=1 
C473: x14+x30 <=1 
C474: x14+x32-y14_32 <=1 
C475: x14+x34 <=1 
C476: x14+x38-y14_38 <=1 
C477: x14+x39-y14_39 <=1 
C478: x14+x41 <=1 
C479: x14+x42-y14_42 <=1 
C480: x14+x45 <=1 
C481: x14+x47 <=1 
C482: x14+x48-y14_48 <=1 
C483: x14+x49 <=1 
C484: x14+x51-y14_51 <=1 
C485: x14+x52-y14_52 <=1 
C486: x14+x55 <=1 
C487: x14+x56 <=1 
C488: x14+x59 <=1 
C489: x15+x16-y15_16 <=1 
C490: x15+x17 <=1 
C491: x15+x18-y15_18 <=1 
C492: x15+x19 <=1 
C493: x15+x20 <=1 
C494: x15+x21 <=1 
C495: x15+x23 <=1 
C496: x15+x26-y15_26 <=1 
C497: x15+x27-y15_27 <=1 
C498: x15+x31 <=1 
C499: x15+x33-y15_33 <=1 
C500: x15+x35 <=1 
C501: x15+x36-y15_36 <=1 
C502: x15+x37 <=1 
C503: x15+x39 <=1 
C504: x15+x40-y15_40 <=1 
C505: x15+x41-y15_41 <=1 
C506: x15+x42 <=1 
C507: x15+x43 <=1 
C508: x15+x44 <=1 
C509: x15+x48-y15_48 <=1 
C510: x15+x55 <=1 
C511: x15+x56-y15_56 <=1 
C512: x15+x57 <=1 
C513: x15+x59 <=1 
C514: x15+x60-y15_60 <=1 
C515: x16+x19 <=1 
C516: x16+x20-y16_20 <=1 
C517: x16+x25-y16_25 <=1 
C518: x16+x26 <=1 
C519: x16+x28-y16_28 <=1 
C520: x16+x30-y16_30 <=1 
C521: x16+x31-y16_31 <=1 
C522: x16+x32-y16_32 <=1 
C523: x16+x34 <=1 
C524: x16+x35-y16_35 <=1 
C525: x16+x36-y16_36 <=1 
C526: x16+x38 <=1 
C527: x16+x42-y16_42 <=1 
C528: x16+x43-y16_43 <=1 
C529: x16+x44-y16_44 <=1 
C530: x16+x45-y16_45 <=1 
C531: x16+x47-y16_47 <=1 
C532: x16+x48 <=1 
C533: x16+x49-y16_49 <=1 
C534: x16+x50 <=1 
C535: x16+x51-y16_51 <=1 
C536: x16+x54 <=1 
C537: x16+x55 <=1 
C538: x16+x56-y16_56 <=1 
C539: x16+x57-y16_57 <=1 
C540: x16+x59 <=1 
C541: x17+x18 <=1 
C542: x17+x19 <=1 
C543: x17+x20-y17_20 <=1 
C544: x17+x22 <=1 
C545: x17+x23-y17_23 <=1 
C546: x17+x24-y17_24 <=1 
C547: x17+x26-y17_26 <=1 
C548: x17+x30-y17_30 <=1 
C549: x17+x32 <=1 
C550: x17+x33-y17_33 <=1 
C551: x17+x34 <=1 
C552: x17+x35 <=1 
C553: x17+x36 <=1 
C554: x17+x37 <=1 
C555: x17+x38-y17_38 <=1 
C556: x17+x40 <=1 
C557: x17+x41 <=1 
C558: x17+x42 <=1 
C559: x17+x43 <=1 
C560: x17+x46-y17_46 <=1 
C561: x17+x47 <=1 
C562: x17+x50-y17_50 <=1 
C563: x17+x52 <=1 
C564: x17+x53 <=1 
C565: x17+x54-y17_54 <=1 
C566: x17+x57-y17_57 <=1 
C567: x17+x59-y17_59 <=1 
C568: x17+x60 <=1 
C569: x18+x22 <=1 
C570: x18+x24-y18_24 <=1 
C571: x18+x25-y18_25 <=1 
C572: x18+x26 <=1 
C573: x18+x27 <=1 
C574: x18+x28-y18_28 <=1 
C575: x18+x29-y18_29 <=1 
C576: x18+x30 <=1 
C577: x18+x31 <=1 
C578: x18+x33 <=1 
C579: x18+x34-y18_34 <=1 
C580: x18+x36-y18_36 <=1 
C581: x18+x37 <=1 
C582: x18+x38-y18_38 <=1 
C583: x18+x40-y18_40 <=1 
C584: x18+x42-y18_42 <=1 
C585: x18+x51-y18_51 <=1 
C586: x18+x52 <=1 
C587: x18+x53-y18_53 <=1 
C588: x18+x54-y18_54 <=1 
C589: x18+x55-y18_55 <=1 
C590: x18+x57 <=1 
C591: x18+x60-y18_60 <=1 
C592: x19+x20 <=1 
C593: x19+x21-y19_21 <=1 
C594: x19+x28-y19_28 <=1 
C595: x19+x30-y19_30 <=1 
C596: x19+x31 <=1 
C597: x19+x34-y19_34 <=1 
C598: x19+x35 <=1 
C599: x19+x36-y19_36 <=1 
C600: x19+x37 <=1 
C601: x19+x39 <=1 
C602: x19+x40 <=1 
C603: x19+x42 <=1 
C604: x19+x43-y19_43 <=1 
C605: x19+x44-y19_44 <=1 
C606: x19+x47-y19_47 <=1 
C607: x19+x52 <=1 
C608: x19+x53 <=1 
C609: x19+x54 <=1 
C610: x19+x56-y19_56 <=1 
C611: x19+x57-y19_57 <=1 
C612: x20+x21-y20_21 <=1 
C613: x20+x23 <=1 
C614: x20+x24-y20_24 <=1 
C615: x20+x25 <=1 
C616: x20+x27 <=1 
C617: x20+x30 <=1 
C618: x20+x31 <=1 
C619: x20+x32 <=1 
C620: x20+x36-y20_36 <=1 
C621: x20+x37 <=1 
C622: x20+x38 <=1 
C623: x20+x39-y20_39 <=1 
C624: x20+x40-y20_40 <=1 
C625: x20+x41 <=1 
C626: x20+x42-y20_42 <=1 
C627: x20+x43-y20_43 <=1 
C628: x20+x46 <=1 
C629: x20+x47 <=1 
C630: x20+x48-y20_48 <=1 
C631: x20+x49-y20_49 <=1 
C632: x20+x52-y20_52 <=1 
C633: x20+x53-y20_53 <=1 
C634: x20+x55-y20_55 <=1 
C635: x20+x56 <=1 
C636: x20+x57-y20_57 <=1 
C637: x20+x59 <=1 
C638: x21+x22 <=1 
C639: x21+x25-y21_25 <=1 
C640: x21+x26 <=1 
C641: x21+x28 <=1 
C642: x21+x34-y21_34 <=1 
C643: x21+x38-y21_38 <=1 
C644: x21+x39 <=1 
C645: x21+x41-y21_41 <=1 
C646: x21+x42 <=1 
C647: x21+x44 <=1 
C648: x21+x45-y21_45 <=1 
C649: x21+x46-y21_46 <=1 
C650: x21+x50-y21_50 <=1 
C651: x21+x53 <=1 
C652: x21+x56 <=1 
C653: x21+x57-y21_57 <=1 
C654: x21+x58-y21_58 <=1 
C655: x21+x59-y21_59 <=1 
C656: x22+x23 <=1 
C657: x22+x24 <=1 
C658: x22+x25-y22_25 <=1 
C659: x22+x27-y22_27 <=1 
C660: x22+x28-y22_28 <=1 
C661: x22+x29 <=1 
C662: x22+x32 <=1 
C663: x22+x35 <=1 
C664: x22+x37-y22_37 <=1 
C665: x22+x38 <=1 
C666: x22+x39 <=1 
C667: x22+x41 <=1 
C668: x22+x42-y22_42 <=1 
C669: x22+x43 <=1 
C670: x22+x47-y22_47 <=1 
C671: x22+x48-y22_48 <=1 
C672: x22+x49 <=1 
C673: x22+x50 <=1 
C674: x22+x51 <=1 
C675: x22+x53 <=1 
C676: x22+x57-y22_57 <=1 
C677: x22+x58-y22_58 <=1 
C678: x22+x60 <=1 
C679: x23+x24 <=1 
C680: x23+x25-y23_25 <=1 
C681: x23+x26-y23_26 <=1 
C682: x23+x28 <=1 
C683: x23+x29-y23_29 <=1 
C684: x23+x30 <=1 
C685: x23+x32 <=1 
C686: x23+x33 <=1 
C687: x23+x34 <=1 
C688: x23+x35-y23_35 <=1 
C689: x23+x36 <=1 
C690: x23+x38 <=1 
C691: x23+x39 <=1 
C692: x23+x40-y23_40 <=1 
C693: x23+x42-y23_42 <=1 
C694: x23+x45-y23_45 <=1 
C695: x23+x46 <=1 
C696: x23+x48 <=1 
C697: x23+x49-y23_49 <=1 
C698: x23+x51 <=1 
C699: x23+x53 <=1 
C700: x23+x55 <=1 
C701: x23+x57-y23_57 <=1 
C702: x23+x59 <=1 
C703: x23+x60 <=1 
C704: x24+x25 <=1 
C705: x24+x28-y24_28 <=1 
C706: x24+x29-y24_29 <=1 
C707: x24+x30 <=1 
C708: x24+x31-y24_31 <=1 
C709: x24+x32-y24_32 <=1 
C710: x24+x35 <=1 
C711: x24+x36-y24_36 <=1 
C712: x24+x38 <=1 
C713: x24+x41-y24_41 <=1 
C714: x24+x42-y24_42 <=1 
C715: x24+x47-y24_47 <=1 
C716: x24+x48 <=1 
C717: x24+x50 <=1 
C718: x24+x51-y24_51 <=1 
C719: x24+x52-y24_52 <=1 
C720: x24+x55-y24_55 <=1 
C721: x24+x56-y24_56 <=1 
C722: x24+x57 <=1 
C723: x24+x58-y24_58 <=1 
C724: x24+x59-y24_59 <=1 
C725: x24+x60-y24_60 <=1 
C726: x25+x34-y25_34 <=1 
C727: x25+x35-y25_35 <=1 
C728: x25+x36 <=1 
C729: x25+x37-y25_37 <=1 
C730: x25+x38 <=1 
C731: x25+x40-y25_40 <=1 
C732: x25+x42 <=1 
C733: x25+x43-y25_43 <=1 
C734: x25+x44 <=1 
C735: x25+x45 <=1 
C736: x25+x46 <=1 
C737: x25+x47 <=1 
C738: x25+x48 <=1 
C739: x25+x49-y25_49 <=1 
C740: x25+x51-y25_51 <=1 
C741: x25+x55-y25_55 <=1 
C742: x25+x57-y25_57 <=1 
C743: x25+x58-y25_58 <=1 
C744: x25+x59-y25_59 <=1 
C745: x25+x60-y25_60 <=1 
C746: x26+x28 <=1 
C747: x26+x30-y26_30 <=1 
C748: x26+x32 <=1 
C749: x26+x34 <=1 
C750: x26+x35 <=1 
C751: x26+x39 <=1 
C752: x26+x40 <=1 
C753: x26+x41-y26_41 <=1 
C754: x26+x45 <=1 
C755: x26+x47-y26_47 <=1 
C756: x26+x48-y26_48 <=1 
C757: x26+x49-y26_49 <=1 
C758: x26+x51 <=1 
C759: x26+x53 <=1 
C760: x26+x54 <=1 
C761: x26+x56 <=1 
C762: x26+x58-y26_58 <=1 
C763: x27+x28 <=1 
C764: x27+x30-y27_30 <=1 
C765: x27+x31-y27_31 <=1 
C766: x27+x32-y27_32 <=1 
C767: x27+x33 <=1 
C768: x27+x36 <=1 
C769: x27+x38-y27_38 <=1 
C770: x27+x39-y27_39 <=1 
C771: x27+x40-y27_40 <=1 
C772: x27+x41 <=1 
C773: x27+x45 <=1 
C774: x27+x47 <=1 
C775: x27+x48 <=1 
C776: x27+x49-y27_49 <=1 
C777: x27+x50 <=1 
C778: x27+x52-y27_52 <=1 
C779: x27+x53 <=1 
C780: x27+x56 <=1 
C781: x27+x58 <=1 
C782: x27+x59 <=1 
C783: x27+x60 <=1 
C784: x28+x29-y28_29 <=1 
C785: x28+x31-y28_31 <=1 
C786: x28+x32-y28_32 <=1 
C787: x28+x33 <=1 
C788: x28+x35-y28_35 <=1 
C789: x28+x37-y28_37 <=1 
C790: x28+x38 <=1 
C791: x28+x39 <=1 
C792: x28+x40 <=1 
C793: x28+x43 <=1 
C794: x28+x45-y28_45 <=1 
C795: x28+x46 <=1 
C796: x28+x47 <=1 
C797: x28+x48-y28_48 <=1 
C798: x28+x50-y28_50 <=1 
C799: x28+x52 <=1 
C800: x28+x54-y28_54 <=1 
C801: x28+x55 <=1 
C802: x28+x56 <=1 
C803: x28+x58 <=1 
C804: x28+x59-y28_59 <=1 
C805: x28+x60-y28_60 <=1 
C806: x29+x32 <=1 
C807: x29+x33 <=1 
C808: x29+x34-y29_34 <=1 
C809: x29+x40-y29_40 <=1 
C810: x29+x42 <=1 
C811: x29+x43 <=1 
C812: x29+x44 <=1 
C813: x29+x49 <=1 
C814: x29+x50 <=1 
C815: x29+x51 <=1 
C816: x29+x52 <=1 
C817: x29+x53-y29_53 <=1 
C818: x29+x54 <=1 
C819: x29+x55 <=1 
C820: x29+x57-y29_57 <=1 
C821: x29+x58 <=1 
C822: x29+x59-y29_59 <=1 
C823: x29+x60-y29_60 <=1 
C824: x30+x31 <=1 
C825: x30+x33 <=1 
C826: x30+x35 <=1 
C827: x30+x37 <=1 
C828: x30+x42 <=1 
C829: x30+x45 <=1 
C830: x30+x46 <=1 
C831: x30+x47-y30_47 <=1 
C832: x30+x48-y30_48 <=1 
C833: x30+x49-y30_49 <=1 
C834: x30+x51 <=1 
C835: x30+x52-y30_52 <=1 
C836: x30+x56-y30_56 <=1 
C837: x30+x57 <=1 
C838: x31+x32 <=1 
C839: x31+x33-y31_33 <=1 
C840: x31+x34-y31_34 <=1 
C841: x31+x35-y31_35 <=1 
C842: x31+x38 <=1 
C843: x31+x39-y31_39 <=1 
C844: x31+x42 <=1 
C845: x31+x44 <=1 
C846: x31+x45-y31_45 <=1 
C847: x31+x46 <=1 
C848: x31+x47 <=1 
C849: x31+x48 <=1 
C850: x31+x50 <=1 
C851: x31+x51 <=1 
C852: x31+x52-y31_52 <=1 
C853: x31+x53 <=1 
C854: x31+x54 <=1 
C855: x31+x55-y31_55 <=1 
C856: x31+x56 <=1 
C857: x31+x60 <=1 
C858: x32+x33 <=1 
C859: x32+x36-y32_36 <=1 
C860: x32+x37-y32_37 <=1 
C861: x32+x40-y32_40 <=1 
C862: x32+x42 <=1 
C863: x32+x43 <=1 
C864: x32+x44 <=1 
C865: x32+x47-y32_47 <=1 
C866: x32+x49 <=1 
C867: x32+x50-y32_50 <=1 
C868: x32+x51 <=1 
C869: x32+x53-y32_53 <=1 
C870: x32+x54 <=1 
C871: x32+x57 <=1 
C872: x32+x60 <=1 
C873: x33+x36-y33_36 <=1 
C874: x33+x37 <=1 
C875: x33+x40 <=1 
C876: x33+x42-y33_42 <=1 
C877: x33+x44-y33_44 <=1 
C878: x33+x45 <=1 
C879: x33+x46 <=1 
C880: x33+x50 <=1 
C881: x33+x51-y33_51 <=1 
C882: x33+x52 <=1 
C883: x33+x53-y33_53 <=1 
C884: x33+x54 <=1 
C885: x33+x55-y33_55 <=1 
C886: x33+x57 <=1 
C887: x33+x58-y33_58 <=1 
C888: x33+x59-y33_59 <=1 
C889: x33+x60 <=1 
C890: x34+x37 <=1 
C891: x34+x39-y34_39 <=1 
C892: x34+x41 <=1 
C893: x34+x42 <=1 
C894: x34+x43 <=1 
C895: x34+x44-y34_44 <=1 
C896: x34+x46-y34_46 <=1 
C897: x34+x48-y34_48 <=1 
C898: x34+x49-y34_49 <=1 
C899: x34+x50 <=1 
C900: x34+x51 <=1 
C901: x34+x52 <=1 
C902: x34+x53 <=1 
C903: x34+x54 <=1 
C904: x34+x55-y34_55 <=1 
C905: x34+x56-y34_56 <=1 
C906: x34+x57-y34_57 <=1 
C907: x34+x58 <=1 
C908: x34+x59 <=1 
C909: x34+x60 <=1 
C910: x35+x37 <=1 
C911: x35+x40-y35_40 <=1 
C912: x35+x41 <=1 
C913: x35+x43 <=1 
C914: x35+x44 <=1 
C915: x35+x46-y35_46 <=1 
C916: x35+x47-y35_47 <=1 
C917: x35+x48-y35_48 <=1 
C918: x35+x50-y35_50 <=1 
C919: x35+x51 <=1 
C920: x35+x53-y35_53 <=1 
C921: x35+x55-y35_55 <=1 
C922: x35+x57 <=1 
C923: x35+x59-y35_59 <=1 
C924: x36+x39 <=1 
C925: x36+x43 <=1 
C926: x36+x45-y36_45 <=1 
C927: x36+x47 <=1 
C928: x36+x48 <=1 
C929: x36+x49 <=1 
C930: x36+x51 <=1 
C931: x36+x52 <=1 
C932: x36+x55 <=1 
C933: x36+x56 <=1 
C934: x36+x57 <=1 
C935: x36+x58-y36_58 <=1 
C936: x36+x60-y36_60 <=1 
C937: x37+x43 <=1 
C938: x37+x45-y37_45 <=1 
C939: x37+x46 <=1 
C940: x37+x49 <=1 
C941: x37+x51 <=1 
C942: x37+x53-y37_53 <=1 
C943: x37+x54 <=1 
C944: x37+x55-y37_55 <=1 
C945: x37+x58-y37_58 <=1 
C946: x37+x59 <=1 
C947: x38+x39-y38_39 <=1 
C948: x38+x40-y38_40 <=1 
C949: x38+x41-y38_41 <=1 
C950: x38+x43-y38_43 <=1 
C951: x38+x44 <=1 
C952: x38+x46-y38_46 <=1 
C953: x38+x48-y38_48 <=1 
C954: x38+x52-y38_52 <=1 
C955: x38+x53 <=1 
C956: x38+x54 <=1 
C957: x38+x55 <=1 
C958: x38+x57-y38_57 <=1 
C959: x39+x41 <=1 
C960: x39+x42-y39_42 <=1 
C961: x39+x43 <=1 
C962: x39+x46-y39_46 <=1 
C963: x39+x47 <=1 
C964: x39+x48 <=1 
C965: x39+x51 <=1 
C966: x39+x52-y39_52 <=1 
C967: x39+x53-y39_53 <=1 
C968: x39+x54 <=1 
C969: x39+x57-y39_57 <=1 
C970: x39+x58 <=1 
C971: x39+x60 <=1 
C972: x40+x42-y40_42 <=1 
C973: x40+x43-y40_43 <=1 
C974: x40+x44 <=1 
C975: x40+x45-y40_45 <=1 
C976: x40+x47 <=1 
C977: x40+x50 <=1 
C978: x40+x55 <=1 
C979: x40+x56 <=1 
C980: x40+x58-y40_58 <=1 
C981: x40+x59 <=1 
C982: x40+x60 <=1 
C983: x41+x42-y41_42 <=1 
C984: x41+x43-y41_43 <=1 
C985: x41+x44 <=1 
C986: x41+x48 <=1 
C987: x41+x49-y41_49 <=1 
C988: x41+x50 <=1 
C989: x41+x52-y41_52 <=1 
C990: x41+x53 <=1 
C991: x41+x54-y41_54 <=1 
C992: x41+x56-y41_56 <=1 
C993: x41+x57 <=1 
C994: x41+x58-y41_58 <=1 
C995: x41+x60 <=1 
C996: x42+x44-y42_44 <=1 
C997: x42+x46 <=1 
C998: x42+x47 <=1 
C999: x42+x49-y42_49 <=1 
C1000: x42+x50-y42_50 <=1 
C1001: x42+x51-y42_51 <=1 
C1002: x42+x54-y42_54 <=1 
C1003: x42+x58 <=1 
C1004: x42+x59 <=1 
C1005: x43+x44-y43_44 <=1 
C1006: x43+x45 <=1 
C1007: x43+x46 <=1 
C1008: x43+x47 <=1 
C1009: x43+x49 <=1 
C1010: x43+x53 <=1 
C1011: x43+x56-y43_56 <=1 
C1012: x43+x57-y43_57 <=1 
C1013: x43+x58 <=1 
C1014: x43+x60 <=1 
C1015: x44+x50 <=1 
C1016: x44+x51 <=1 
C1017: x44+x52 <=1 
C1018: x44+x54 <=1 
C1019: x44+x55 <=1 
C1020: x44+x56 <=1 
C1021: x44+x57 <=1 
C1022: x44+x59 <=1 
C1023: x44+x60-y44_60 <=1 
C1024: x45+x46 <=1 
C1025: x45+x47 <=1 
C1026: x45+x48 <=1 
C1027: x45+x49-y45_49 <=1 
C1028: x45+x50-y45_50 <=1 
C1029: x45+x51 <=1 
C1030: x45+x52-y45_52 <=1 
C1031: x45+x53 <=1 
C1032: x45+x55 <=1 
C1033: x45+x58 <=1 
C1034: x45+x59 <=1 
C1035: x45+x60 <=1 
C1036: x46+x47 <=1 
C1037: x46+x48-y46_48 <=1 
C1038: x46+x49-y46_49 <=1 
C1039: x46+x50 <=1 
C1040: x46+x51 <=1 
C1041: x46+x53 <=1 
C1042: x46+x54-y46_54 <=1 
C1043: x46+x56-y46_56 <=1 
C1044: x46+x57 <=1 
C1045: x46+x58-y46_58 <=1 
C1046: x47+x48-y47_48 <=1 
C1047: x47+x49 <=1 
C1048: x47+x50 <=1 
C1049: x47+x51-y47_51 <=1 
C1050: x47+x52 <=1 
C1051: x47+x53 <=1 
C1052: x47+x54-y47_54 <=1 
C1053: x47+x55 <=1 
C1054: x47+x58 <=1 
C1055: x47+x60 <=1 
C1056: x48+x49 <=1 
C1057: x48+x51-y48_51 <=1 
C1058: x48+x53 <=1 
C1059: x48+x54-y48_54 <=1 
C1060: x48+x58 <=1 
C1061: x48+x60 <=1 
C1062: x49+x50-y49_50 <=1 
C1063: x49+x51 <=1 
C1064: x49+x52-y49_52 <=1 
C1065: x49+x54 <=1 
C1066: x49+x57-y49_57 <=1 
C1067: x50+x51 <=1 
C1068: x50+x52-y50_52 <=1 
C1069: x50+x53 <=1 
C1070: x50+x55-y50_55 <=1 
C1071: x50+x56-y50_56 <=1 
C1072: x50+x58-y50_58 <=1 
C1073: x50+x60 <=1 
C1074: x51+x52 <=1 
C1075: x51+x53 <=1 
C1076: x51+x54-y51_54 <=1 
C1077: x51+x59-y51_59 <=1 
C1078: x52+x54 <=1 
C1079: x52+x55-y52_55 <=1 
C1080: x52+x58 <=1 
C1081: x52+x60 <=1 
C1082: x53+x55 <=1 
C1083: x53+x56 <=1 
C1084: x53+x58-y53_58 <=1 
C1085: x53+x60 <=1 
C1086: x54+x55-y54_55 <=1 
C1087: x54+x56-y54_56 <=1 
C1088: x54+x57 <=1 
C1089: x54+x60-y54_60 <=1 
C1090: x55+x56 <=1 
C1091: x55+x59-y55_59 <=1 
C1092: x55+x60-y55_60 <=1 
C1093: x56+x58 <=1 
C1094: x56+x59-y56_59 <=1 
C1095: x56+x60 <=1 
C1096: x57+x58-y57_58 <=1 
C1097: x57+x59 <=1 
C1098: x58+x60-y58_60 <=1 
C1099: x59+x60 <=1 

binary
x0
x1
x2
x3
x4
x5
x6
x7
x8
x9
x10
x11
x12
x13
x14
x15
x16
x17
x18
x19
x20
x21
x22
x23
x24
x25
x26
x27
x28
x29
x30
x31
x32
x33
x34
x35
x36
x37
x38
x39
x40
x41
x42
x43
x44
x45
x46
x47
x48
x49
x50
x51
x52
x53
x54
x55
x56
x57
x58
x59
x60
