problem_generation/data/GISP/train/er_n=61_m=1099_p=0.60_SET2_setparam=100.00_alpha=0.50_604.sol
objective value:                                 1075
x2                                                  1 	(obj:100)
x16                                                 1 	(obj:100)
x21                                                 1 	(obj:100)
x23                                                 1 	(obj:100)
x25                                                 1 	(obj:100)
x27                                                 1 	(obj:100)
x31                                                 1 	(obj:100)
x35                                                 1 	(obj:100)
x40                                                 1 	(obj:100)
x49                                                 1 	(obj:100)
x52                                                 1 	(obj:100)
y2_27                                               1 	(obj:-1)
y2_49                                               1 	(obj:-1)
y2_35                                               1 	(obj:-1)
y2_21                                               1 	(obj:-1)
y31_52                                              1 	(obj:-1)
y35_40                                              1 	(obj:-1)
y23_25                                              1 	(obj:-1)
y16_31                                              1 	(obj:-1)
y16_49                                              1 	(obj:-1)
y16_35                                              1 	(obj:-1)
y27_31                                              1 	(obj:-1)
y27_40                                              1 	(obj:-1)
y27_49                                              1 	(obj:-1)
y2_52                                               1 	(obj:-1)
y21_25                                              1 	(obj:-1)
y25_40                                              1 	(obj:-1)
y25_35                                              1 	(obj:-1)
y16_25                                              1 	(obj:-1)
y27_52                                              1 	(obj:-1)
y31_35                                              1 	(obj:-1)
y23_40                                              1 	(obj:-1)
y23_49                                              1 	(obj:-1)
y49_52                                              1 	(obj:-1)
y23_35                                              1 	(obj:-1)
y25_49                                              1 	(obj:-1)
